! Touchstone file exported from HFSS 2024.2.0
!        File:           D:/dev/ENZ_ANT/ENZ-Eigenchannel-mimo/poros_aedt/reconstrucoes_exploratorias/Q4_mimo2x2_c0_v8/projeto_configurado/Q4_mimo2x2_c0_v8_HIPOTESE.aedt
!        Generated:      09:31:49 AM Aug  4, 2026
!        Design:         HFSS_ENZ_Q4_mimo2x2_c0_v8
!        Project:        Q4_mimo2x2_c0_v8_HIPOTESE
!        Setup:          Setup_Q4_MIMO2X2
!        Solution:       Sweep_Q4_25_27GHz
!
! Variables:
!        altura_interna_wr28 = 7.11mm
!        cavidade_area_plana = 108mm2
!        cavidade_comprimento_interno_exploratorio = 18mm
!        cavidade_largura_interna_exploratoria = 6mm
!        chanfro = 3mm
!        comprimento_total_eixo_y = 27mm
!        corpo_altura_externa = 11.11mm
!        corpo_comprimento_externo = 36mm
!        corpo_largura_externa_exploratoria = 9mm
!        degrau_altura = 1mm
!        degrau_largura = 9mm
!        espessura_fundo_exploratoria = 3mm
!        espessura_parede_lateral = 1mm
!        espessura_tampa = 1mm
!        flange_comprimento_exploratorio = 4mm
!        flange_largura = 22.5mm
!        fr4_dimensao_x = 3mm
!        fr4_dimensao_y = 1.65mm
!        fr4_epsilon_r_exploratorio = 4.4
!        fr4_tan_delta_exploratorio = 0.02
!        frequencia_adaptativa = 25.87GHz
!        frequencia_sweep_fim = 27GHz
!        frequencia_sweep_inicio = 25GHz
!        largura_interna_wr28 = 3.56mm
!        parafuso_diametro_exploratorio = 2mm
!        pino_diametro = 1mm
!        pino_offset_x_exploratorio = 2mm
!        pino_offset_y_exploratorio = 1.325mm
!        plano_porta_y = -18mm
!        q4_branch_length = 19.9956242277669mm
!        q4_external_port_y = -62.9901545124755mm
!        q4_frequency = 25.87GHz
!        q4_input_length = 19.9956242277669mm
!        q4_interpair_spacing = 96mm
!        q4_junction_length = 4.99890605694172mm
!        q4_lambda_g = 19.9956242277669mm
!        q4_pair_spacing = 42mm
!        q4_wg_a_z = 7.11mm
!        q4_wg_b_x = 3.56mm
!        ranhura_comprimento = 5.66mm
!        ranhura_largura = 0.8mm
!        ranhura_passo_exploratorio = 4mm
!
# GHz S MA R 50.000000
! Terminal data exported
! Port[1] = P1_WG_A
! Port[2] = P2_WG_B
25                             0.970267328414227 7.54817003318603 0.000237423857898984 43.4736485303716 0.000237423857898984 43.4736485303716 0.970686312803893 7.56930433304669 
! Gamma         0                281.600730324164 0                281.600727661023 
! Port Impedance         50               0                50               0                
25.025                         0.971323189586084 6.61184177896369 0.000229295403305545 39.6861263414663 0.00022929540330554 39.6861263414678 0.971745703221118 6.62934592737599 
! Gamma         0                282.574444437222 0                282.574441783258 
! Port Impedance         50               0                50               0                
25.05                          0.9715441252018  5.7408912380539  0.000225697812876547 35.1961057518832 0.000225697812876539 35.1961057518858 0.971974303863125 5.75524789050713 
! Gamma         0                283.545782986983 0                283.545780342111 
! Port Impedance         50               0                50               0                
25.075                         0.971106126963402 4.92401100546037 0.000226390647157321 29.9084855053595 0.000226390647157309 29.9084855053628 0.971547657013686 4.9354098428438  
! Gamma         0                284.514770304096 0                284.514767668232 
! Port Impedance         50               0                50               0                
25.1                           0.970127709343536 4.15097079934612 0.000231357995658012 23.7613801253279 0.000231357995657997 23.7613801253314 0.970583155055587 4.15938476179152 
! Gamma         0                285.481430330378 0                285.481427703439 
! Port Impedance         50               0                50               0                
25.125                         0.968683204319619 3.41253166058803 0.000240761395589973 16.720706551483  0.000240761395589957 16.7207065514866 0.969153627784282 3.4177710906873  
! Gamma         0                286.445786627345 0                286.44578400925  
! Port Impedance         50               0                50               0                
25.15                          0.966811544235403 2.70028442239746 0.000254882955158617 8.77360543652836 0.000254882955158602 8.77360543653144 0.967296254670374 2.70203490585231 
! Gamma         0                287.40786238451  0                287.407859775179 
! Port Impedance         50               0                50               0                
25.175                         0.964521450008319 2.00645929725757 0.000274048287814197 -0.0778758983398943 0.000274048287814184 -0.0778758983379298 0.965017783765493 2.00430793180458 
! Gamma         0                288.367680427441 0                288.367677826795 
! Port Impedance         50               0                50               0                
25.2                           0.961793577391104 1.32372973677255 0.000298521040137617 -9.8199220191923 0.000298521040137612 -9.81992201919121 0.962296644457436 1.31718353675274 
! Gamma         0                289.325263225606 0                289.325260633568 
! Port Impedance         50               0                50               0                
25.225                         0.958579806774959 0.645023169582799 0.000328373588170287 -20.4236310351501 0.00032837358817029 -20.4236310351506 0.959082154492197 0.633522564530719 
! Gamma         0                290.280632900002 0                290.280630316493 
! Port Impedance         50               0                50               0                
25.25                          0.954799471410028 -0.036649925119511 0.00036337032669327 -31.8343721888541 0.000363370326693283 -31.8343721888558 0.955290616702663 -0.0537198962569311 
! Gamma         0                291.23381123056  0                291.233808655508 
! Port Impedance         50               0                50               0                
25.275                         0.950331855728826 -0.72832841941726 0.000402948295837657 -43.9588477343932 0.000402948295837681 -43.9588477343964 0.950797624450469 -0.751626398583857 
! Gamma         0                292.184819663385 0                292.184817096714 
! Port Impedance         50               0                50               0                
25.3                           0.945003687766794 -1.43715017857883 0.000446407580240597 -56.6619801496569 0.000446407580240631 -56.6619801496617 0.945425271609673 -1.46736219332007 
! Gamma         0                293.133679317758 0                293.133676759397 
! Port Impedance         50               0                50               0                
25.325                         0.938569497702387 -2.17022108733785 0.000493363581392361 -69.7875300242325 0.000493363581392396 -69.7875300242382 0.938922090894128 -2.20803219563468 
! Gamma         0                294.080410992984 0                294.080408442859 
! Port Impedance         50               0                50               0                
25.35                          0.930681506725972 -2.93408801618332 0.000544354201720165 -83.2066339350698 0.000544354201720197 -83.2066339350755 0.930932313467634 -2.98012620656098 
! Gamma         0                295.02503517504  0                295.025032633079 
! Port Impedance         50               0                50               0                
25.375                         0.920844177779381 -3.73333690266612 0.000601372869795207 -96.8817539521726 0.000601372869795233 -96.8817539521775 0.920949500610909 -3.78805434369291 
! Gamma         0                295.967572043051 0                295.967569509186 
! Port Impedance         50               0                50               0                
25.4                           0.908347465257673 -4.56723740387257 0.000668165017077885 -110.925753245055 0.000668165017077899 -110.925753245058 0.908248578188847 -4.63064942072444 
! Gamma         0                296.908041475603 0                296.908038949764 
! Port Impedance         50               0                50               0                
25.425                         0.892175603220361 -5.42197931395785 0.000750286383933608 -125.645419557649 0.000750286383933613 -125.64541955765 0.891793518497844 -5.49307816470054 
! Gamma         0                297.846463056879 0                297.846460538998 
! Port Impedance         50               0                50               0                
25.45                          0.870907747930546 -6.25291233310428 0.000854859192437506 -141.573819595211 0.000854859192437502 -141.57381959521 0.870138974060751 -6.32834204915247 
! Gamma         0                298.782856082643 0                298.782853572654 
! Port Impedance         50               0                50               0                
25.475                         0.84270586484026 -6.94450824548269 0.000989350859069233 -159.496909600884 0.000989350859069224 -159.49690960088 0.8414284830204  -7.01563238121136 
! Gamma         0                299.71723956607  0                299.717237063906 
! Port Impedance         50               0                50               0                
25.5                           0.805749554840248 -7.22496055136222 0.00115718458255667 179.547477041839 0.00115718458255667 179.547477041845 0.80387066707976 -7.27196972277938 
! Gamma         0                300.649632243418 0                300.649629749014 
! Port Impedance         50               0                50               0                
25.525                         0.760172374416663 -6.51788525175625 0.00134575364797343 154.391841804004 0.00134575364797345 154.391841804011 0.757793193582591 -6.50169078770072 
! Gamma         0                301.580052579568 0                301.580050092859 
! Port Impedance         50               0                50               0                
25.55                          0.713353845183898 -3.87051453950721 0.00150491774832491 124.192317881439 0.00150491774832496 124.192317881447 0.711114135732181 -3.73981725233707 
! Gamma         0                302.508518773409 0                302.508516294332 
! Port Impedance         50               0                50               0                
25.575                         0.6863760238594  1.30682085338993 0.00154009426248943 89.3993883738681 0.00154009426248951 89.3993883738749 0.685527230282454 1.54378981390381 
! Gamma         0                303.435048763097 0                303.435046291591 
! Port Impedance         50               0                50               0                
25.6                           0.702966906686427 7.31939586634079 0.00138049496801696 52.6884771331032 0.00138049496801702 52.6884771331077 0.704081705851889 7.52943829322014 
! Gamma         0                304.359660231179 0                304.359657767181 
! Port Impedance         50               0                50               0                
25.625                         0.757268061857693 11.0985201339899 0.00108081514205318 18.1938156557292 0.0010808151420532 18.1938156557304 0.759289830651401 11.1885872646017 
! Gamma         0                305.282370609587 0                305.282368153036 
! Port Impedance         50               0                50               0                
25.65                          0.819713316915435 12.0083317461384 0.000771992974988512 -10.9731587689714 0.000771992974988517 -10.9731587689711 0.821497556706752 12.0119140746855 
! Gamma         0                306.203197084507 0                306.203194635344 
! Port Impedance         50               0                50               0                
25.675                         0.871140048574392 11.2688201340059 0.000532186082848845 -34.0423265904409 0.000532186082848832 -34.0423265904424 0.872351588895957 11.2390706519962 
! Gamma         0                307.122156601134 0                307.122154159302 
! Port Impedance         50               0                50               0                
25.7                           0.908147973555734 9.92846623822155 0.000368818296075579 -51.8410662416873 0.000368818296075566 -51.8410662416889 0.908880156647112 9.89304587407828 
! Gamma         0                308.039265868313 0                308.039263433745 
! Port Impedance         50               0                50               0                
25.725                         0.933608950883125 8.48729118457368 0.000262340013672967 -65.6656273060146 0.000262340013672959 -65.6656273060159 0.934025767788649 8.45591322996595 
! Gamma         0                308.954541363024 0                308.95453893567  
! Port Impedance         50               0                50               0                
25.75                          0.951049162417895 7.12717286290656 0.000192845807573475 -76.6895545588787 0.000192845807573471 -76.6895545588791 0.951276151964784 7.10196971586676 
! Gamma         0                309.867999334844 0                309.867996914646 
! Port Impedance         50               0                50               0                
25.775                         0.963149293353752 5.89558337372782 0.000146427378158176 -85.8040904721275 0.000146427378158177 -85.8040904721264 0.963266193038311 5.87614083947484 
! Gamma         0                310.779655810216 0                310.779653397117 
! Port Impedance         50               0                50               0                
25.8                           0.971707491899586 4.79111286299194 0.000114406224357008 -93.6384302810425 0.000114406224357013 -93.6384302810407 0.971761804871475 4.7763860609551  
! Gamma         0                311.689526596657 0                311.689524190602 
! Port Impedance         50               0                50               0                
25.825                         0.977888119876892 3.79743605546296 9.15340244130449E-05 -100.625571998458 9.15340244130517E-05 -100.625571998455 0.977907505886347 3.78638602090687 
! Gamma         0                312.59762728686  0                312.597624887794 
! Port Impedance         50               0                50               0                
25.85                          0.982443771658903 2.89574322955292 7.46310197727667E-05 -107.065138294739 7.46310197727748E-05 -107.065138294734 0.982444207047855 2.88750845744521 
! Gamma         0                313.503973262693 0                313.503970870563 
! Port Impedance         50               0                50               0                
25.875                         0.985866717518468 2.06883837145863 6.17401331619574E-05 -113.171177937596 6.1740133161966E-05 -113.171177937589 0.985857393923583 2.06275076543535 
! Gamma         0                314.408579699109 0                314.408577313861 
! Port Impedance         50               0                50               0                
25.9                           0.988484598116882 1.30214925822731 5.16314184913521E-05 -119.105381455605 5.16314184913602E-05 -119.105381455597 0.988470778125018 1.29770520763376 
! Gamma         0                315.311461567956 0                315.311459189538 
! Port Impedance         50               0                50               0                
25.925                         0.990519695448937 0.583663632263528 4.35149284893066E-05 -124.999167976874 4.35149284893148E-05 -124.999167976864 0.990504365700457 0.580487842469434 
! Gamma         0                316.212633641708 0                316.212631270068 
! Port Impedance         50               0                50               0                
25.95                          0.992125726005207 -0.0964513256740153 3.68727900349131E-05 -130.967931180612 3.68727900349206E-05 -130.967931180599 0.992110554808005 -0.0986377535940938 
! Gamma         0                317.112110497099 0                317.112108132186 
! Port Impedance         50               0                50               0                
25.975                         0.993410952785426 -0.746272791468046 3.13591349364249E-05 -137.119675233098 3.13591349364313E-05 -137.119675233084 0.993396845968865 -0.747677584909614 
! Gamma         0                318.009906518677 0                318.00990416044  
! Port Impedance         50               0                50               0                
26                             0.994452936792884 -1.37250063946736 2.67390201958393E-05 -143.559072953004 2.67390201958446E-05 -143.559072952989 0.994440360506514 -1.37327934048733 
! Gamma         0                318.90603590228  0                318.906033550668 
! Port Impedance         50               0                50               0                
26.025                         0.995308117515966 -1.98077045618812 2.28500506246947E-05 -150.386833783733 2.28500506246986E-05 -150.386833783718 0.995297285212559 -1.98104036213853 
! Gamma         0                319.800512658421 0                319.800510313386 
! Port Impedance         50               0                50               0                
26.05                          0.996018144371989 -2.57590532513755 1.95773381535566E-05 -157.693311733438 1.95773381535593E-05 -157.693311733425 0.99600912442337 -2.57575558322837 
! Gamma         0                320.693350615611 0                320.693348277103 
! Port Impedance         50               0                50               0                
26.075                         0.996614130775492 -3.16211734585916 1.68362702399389E-05 -165.544942183202 1.68362702399403E-05 -165.544942183189 0.996606907708275 -3.16161620080677 
! Gamma         0                321.584563423598 0                321.584561091559 
! Port Impedance         50               0                50               0                
26.1                           0.997119555242745 -3.74317051944415 1.45597995782541E-05 -173.963371278445 1.45597995782549E-05 -173.963371278435 0.997114063946941 -3.7423704861595 
! Gamma         0                322.474164556472 0                322.474162230893 
! Port Impedance         50               0                50               0                
26.125                         0.997552263842673 -4.322515376564  1.26884936443965E-05 177.098683161687 1.26884936443967E-05 177.098683161692 0.997548408102727 -4.32145691182383 
! Gamma         0                323.362167315936 0                323.362164996737 
! Port Impedance         50               0                50               0                
26.15                          0.997925862360626 -4.90340417339418 1.11628830583812E-05 167.774020317083 1.11628830583809E-05 167.774020317083 0.99792352431865 -4.90211826299669 
! Gamma         0                324.248584834098 0                324.248582521237 
! Port Impedance         50               0                50               0                
26.175                         0.998250682317441 -5.48899422937977 9.91873743916301E-06 158.274786311106 9.91873743916295E-06 158.2747863111   0.998249726648144 -5.48750418683169 
! Gamma         0                325.133430076584 0                325.133427770017 
! Port Impedance         50               0                50               0                
26.2                           0.998534437442371 -6.08244623616835 8.88625840518445E-06 148.855025346445 8.88625840518478E-06 148.855025346433 0.998534712311128 -6.08076891783076 
! Gamma         0                326.016715845383 0                326.016713545065 
! Port Impedance         50               0                50               0                
26.225                         0.998782641110609 -6.68702422236392 7.99330627540065E-06 139.752421570737 7.9933062754015E-06 139.752421570719 0.998783976933697 -6.68517079419283 
! Gamma         0                326.898454781677 0                326.898452487563 
! Port Impedance         50               0                50               0                
26.25                          0.998998820778478 -7.30620441688949 7.17119200262439E-06 131.135393485588 7.17119200262596E-06 131.135393485569 0.999001027124467 -7.30418075201974 
! Gamma         0                327.778659368606 0                327.778657080653 
! Port Impedance         50               0                50               0                
26.275                         0.999184535336801 -7.94380170240076 6.36074285060382E-06 123.077022436869 6.36074285060576E-06 123.077022436848 0.999187395820668 -7.94160843976859 
! Gamma         0                328.657341933979 0                328.657339652143 
! Port Impedance         50               0                50               0                
26.3                           0.999339168839509 -8.60412503809528 5.51707269954291E-06 115.557718151029 5.51707269954511E-06 115.557718151009 0.999342433442297 -8.60175728245657 
! Gamma         0                329.534514652912 0                329.53451237715  
! Port Impedance         50               0                50               0                
26.325                         0.999459430930818 -9.29217778355591 4.61300148401386E-06 108.484778673839 4.61300148401608E-06 108.484778673819 0.999462804728014 -9.28962436680981 
! Gamma         0                330.410189550424 0                330.410187280693 
! Port Impedance         50               0                50               0                
26.35                          0.999538427441679 -10.0139263783385 3.64224497441118E-06 101.721982230748 3.64224497441285E-06 101.721982230726 0.999541554144554 -10.0111685159818 
! Gamma         0                331.284378503964 0                331.284376240223 
! Port Impedance         50               0                50               0                
26.375                         0.999564050511061 -10.7766732974748 2.62401026059842E-06 95.1642699990156 2.62401026059977E-06 95.1642699989989 0.999566488400051 -10.7736823362315 
! Gamma         0                332.157093245897 0                332.157090988103 
! Port Impedance         50               0                50               0                
26.4                           0.99951623022924 -11.589591190535 1.61092688713564E-06 89.1552528101468 1.61092688713631E-06 89.1552528101267 0.999517416836957 -11.5863249046984 
! Gamma         0                333.028345365922 0                333.028343114034 
! Port Impedance         50               0                50               0                
26.425                         0.99936219434487 -12.4645112873569 7.06767076293556E-07 88.5387069257942 7.06767076293925E-07 88.5387069258037 0.999361394452637 -12.4609077442416 
! Gamma         0                333.89814631345  0                333.898144067429 
! Port Impedance         50               0                50               0                
26.45                          0.999048093568262 -13.4171232964032 2.94842610263975E-07 152.04391961471  2.94842610263746E-07 152.043919614838 0.999044322615264 -13.4130904698082 
! Gamma         0                334.76650739993  0                334.766505159734 
! Port Impedance         50               0                50               0                
26.475                         0.998483699366876 -14.4688613903822 8.30060902167399E-07 159.1878057483   8.30060902167812E-07 159.187805748393 0.998475611686348 -14.4642590002538 
! Gamma         0                335.633439801118 0                335.633437566709 
! Port Impedance         50               0                50               0                
26.5                           0.997513241680986 -15.6499728487359 2.29247533804763E-06 127.102158837315 2.29247533804724E-06 127.102158837376 0.997498972950816 -15.6445792834859 
! Gamma         0                336.49895455931  0                336.498952330649 
! Port Impedance         50               0                50               0                
26.525                         0.995856937239958 -17.0046991520636 6.08841933205452E-06 105.853570849118 6.0884193320537E-06 105.853570849135 0.995833905757775 -16.9981481574833 
! Gamma         0                337.36306258552  0                337.363060362567 
! Port Impedance         50               0                50               0                
26.55                          0.992986431475986 -18.6003634508499 1.43559468469521E-05 92.0378733399036 1.43559468469515E-05 92.03787333991   0.992951184892894 -18.5920156071461 
! Gamma         0                338.225774661613 0                338.225772444331 
! Port Impedance         50               0                50               0                
26.575                         0.9878397326514  -20.5438598423216 3.1220642113563E-05 80.7860955854981 3.12206421135633E-05 80.7860955854978 0.987788291033747 -20.5325232069339 
! Gamma         0                339.087101442402 0                339.087099230752 
! Port Impedance         50               0                50               0                
26.6                           0.97811212289809 -23.0119086470525 6.55796464082406E-05 69.5306584271381 6.55796464082428E-05 69.5306584271359 0.978042873562682 -22.9951841934246 
! Gamma         0                339.947053457692 0                339.947051251636 
! Port Impedance         50               0                50               0                
26.625                         0.958326425736505 -26.3016621428424 0.00013839097964302 56.1432094923134 0.000138390979643025 56.1432094923106 0.958255079758893 -26.2743058788528 
! Gamma         0                340.805641114265 0                340.805638913785 
! Port Impedance         50               0                50               0                
26.65                          0.914222289036004 -30.8579138082079 0.000303098996591749 37.4783287289124 0.000303098996591759 37.4783287289098 0.914254578155385 -30.8078630392528 
! Gamma         0                341.66287469794  0                341.662872502983 
! Port Impedance         50               0                50               0                
26.675                         0.808479749107979 -36.6591835562904 0.000690005288433393 7.51198121145714 0.000690005288433406 7.51198121145507 0.809127384747983 -36.565103299414 
! Gamma         0                342.518764375326 0                342.518762185832 
! Port Impedance         50               0                50               0                
26.7                           0.594648231261764 -36.7368757673074 0.00141301932956641 -42.3062666967192 0.00141301932956642 -42.3062666967202 0.597049374761379 -36.6841830741832 
! Gamma         0                343.373320195868 0                343.373318011825 
! Port Impedance         50               0                50               0                
26.725                         0.512916222893009 -11.7411396860321 0.00183134881921737 -105.59453296827 0.00183134881921737 -105.59453296827 0.513505747398414 -12.018775179217 
! Gamma         0                344.226552093622 0                344.226549914992 
! Port Impedance         50               0                50               0                
26.75                          0.677118834806528 -1.72174447273602 0.0015282655961424 -156.95406740359 0.00152826559614241 -156.95406740359 0.675845384121563 -1.82179022616117 
! Gamma         0                345.078469889076 0                345.078467715825 
! Port Impedance         50               0                50               0                
26.775                         0.793710808061497 -3.84264544851087 0.00112767137393238 169.823198044308 0.00112767137393238 169.823198044308 0.792625397128026 -3.86074072710566 
! Gamma         0                345.929083290931 0                345.929081123024 
! Port Impedance         50               0                50               0                
26.8                           0.854866575836982 -7.06247087233349 0.000876732949052109 148.823780619967 0.000876732949052105 148.823780619967 0.854097147796833 -7.05768222660811 
! Gamma         0                346.778401897834 0                346.778399735237 
! Port Impedance         50               0                50               0                
26.825                         0.888357119436076 -9.90872381133394 0.00074541050413206 133.207214455032 0.000745410504132053 133.207214455032 0.887801449073345 -9.89662294198115 
! Gamma         0                347.62643520009  0                347.626433042769 
! Port Impedance         50               0                50               0                
26.85                          0.908008295609286 -12.3637135855677 0.000675598070518501 119.548814985637 0.0006755980705185 119.548814985637 0.907589772233814 -12.348797141996 
! Gamma         0                348.473192581225 0                348.473190429249 
! Port Impedance         50               0                50               0                
26.875                         0.920116405798995 -14.5528553313862 0.000637441872158056 106.951650447568 0.000637441872158061 106.951650447568 0.919789108388325 -14.5365376086194 
! Gamma         0                349.318683320144 0                349.318681173274 
! Port Impedance         50               0                50               0                
26.9                           0.927723194103568 -16.5822855280346 0.000619170695583918 95.3389984024323 0.000619170695583927 95.3389984024319 0.927459781808942 -16.5649863159256 
! Gamma         0                350.162916591704 0                350.162914450011 
! Port Impedance         50               0                50               0                
26.925                         0.932402475693647 -18.5294916221343 0.000616487546993912 84.7483653937492 0.000616487546993926 84.7483653937486 0.932186257916684 -18.511261975498 
! Gamma         0                351.005901469325 0                351.005899332775 
! Port Impedance         50               0                50               0                
26.95                          0.935011656103761 -20.4518242914059 0.000627813663146557 75.1711502452247 0.00062781366314657 75.1711502452242 0.93483224063404 -20.4325552065751 
! Gamma         0                351.847646926014 0                351.847644794574 
! Port Impedance         50               0                50               0                
26.975                         0.936028342019494 -22.3942774871479 0.000652635374504026 66.5482671572628 0.000652635374504035 66.5482671572625 0.935879281574539 -22.373772467122 
! Gamma         0                352.688161835986 0                352.688159709626 
! Port Impedance         50               0                50               0                
27                             0.935710779540633 -24.3949129685233 0.000691040788680887 58.7881699075168 0.000691040788680887 58.7881699075168 0.935588290830597 -24.3729101984078 
! Gamma         0                353.527454976151 0                353.527452854839 
! Port Impedance         50               0                50               0                
